sat-intances/11.param.solution
language ESSENCE' 1.0
letting actionFrom be [0, 2, 3, 2, 2, 3, 2, 2, 3, 2, 3, 2, 2, 3, 2, 3, 2, 0, 3, 2, 0, 2, 0, 2]
letting actionTo be [2, 3, 2, 3, 1, 2, 1, 1, 2, 1, 2, 1, 1, 2, 1, 2, 1, 2, 2, 1, 2, 1, 2, 1]
letting actionTypes be [1, 4, 6, 4, 2, 7, 2, 2, 6, 2, 5, 2, 2, 6, 2, 3, 2, 1, 8, 2, 1, 2, 1, 2]
letting pointers be [[0, 1, 1, 1, 1, 1, 1, 1, 1, 1, 1, 1, 1, 1, 1, 1, 1, 1, 2, 2, 2, 3, 3, 4, 4;int(0..24)], 
[0, 0, 0, 0, 0, 1, 1, 2, 3, 3, 4, 4, 5, 6, 6, 7, 7, 8, 8, 8, 9, 9, 10, 10, 11;int(0..24)];int(0..1)]
letting statePlaces be [[-1, 12, 12, 0, 0, 0, 1, 1, 1, 0, 0, 1, 1, 1, 0, 0, 1, 1, 12, 0, 0, 1, 1, 0, 0;int(0..24)], 
[-1, -1, 12, 12, 0, 0, 1, 1, 1, 1, 1, 1, 1, 1, 1, 1, 1, 1, 1, 0, 0, 0, 0, 0, 0;int(0..24)];int(2..3)]
